33D32945 STP File, STP Format Version 1.0

SECTION Comment
Name "i640-002-PCST"
Creator "Indaco Biazzo" 
Remark "derived from Incidence graph by Cees Duin"
END

SECTION Graph
Nodes 640
Edges 960
E 1 56 204.000000
E 1 75 192.000000
E 1 204 202.000000
E 1 248 196.000000
E 1 258 202.000000
E 1 327 202.000000
E 1 572 201.000000
E 2 255 194.000000
E 2 327 206.000000
E 3 59 203.000000
E 3 159 189.000000
E 3 592 194.000000
E 4 473 196.000000
E 4 474 200.000000
E 4 519 199.000000
E 4 527 198.000000
E 5 40 208.000000
E 5 292 198.000000
E 6 581 210.000000
E 7 168 207.000000
E 7 553 204.000000
E 7 613 206.000000
E 8 484 198.000000
E 9 447 204.000000
E 10 45 102.000000
E 11 341 95.000000
E 12 497 101.000000
E 13 180 96.000000
E 13 404 105.000000
E 13 486 91.000000
E 14 223 98.000000
E 14 359 97.000000
E 14 388 105.000000
E 15 324 96.000000
E 15 372 112.000000
E 15 478 92.000000
E 16 33 91.000000
E 16 398 103.000000
E 17 149 97.000000
E 17 509 99.000000
E 18 191 96.000000
E 18 353 100.000000
E 18 459 100.000000
E 18 538 101.000000
E 19 241 95.000000
E 19 538 101.000000
E 20 322 98.000000
E 20 477 93.000000
E 20 552 91.000000
E 21 64 101.000000
E 21 220 106.000000
E 21 293 98.000000
E 21 352 102.000000
E 21 534 98.000000
E 22 30 105.000000
E 22 425 92.000000
E 22 554 102.000000
E 23 181 103.000000
E 23 317 103.000000
E 23 322 103.000000
E 23 566 90.000000
E 23 583 95.000000
E 24 523 102.000000
E 24 640 98.000000
E 25 35 95.000000
E 25 78 104.000000
E 25 328 98.000000
E 26 281 109.000000
E 26 301 105.000000
E 26 494 91.000000
E 26 495 106.000000
E 27 69 101.000000
E 27 73 101.000000
E 27 85 102.000000
E 27 188 102.000000
E 27 308 99.000000
E 27 321 96.000000
E 27 456 93.000000
E 27 468 96.000000
E 27 501 98.000000
E 27 538 106.000000
E 27 608 107.000000
E 28 128 104.000000
E 29 639 100.000000
E 30 116 108.000000
E 30 534 89.000000
E 30 620 99.000000
E 31 178 93.000000
E 31 472 91.000000
E 32 69 96.000000
E 32 182 91.000000
E 32 397 93.000000
E 32 511 99.000000
E 33 59 108.000000
E 33 252 102.000000
E 33 279 93.000000
E 33 441 100.000000
E 34 137 98.000000
E 34 333 114.000000
E 34 470 99.000000
E 34 476 103.000000
E 34 613 103.000000
E 35 44 99.000000
E 35 49 101.000000
E 35 262 106.000000
E 35 417 100.000000
E 35 576 95.000000
E 36 204 106.000000
E 36 245 95.000000
E 36 361 101.000000
E 36 466 100.000000
E 36 516 96.000000
E 36 621 96.000000
E 37 264 109.000000
E 37 318 98.000000
E 38 53 101.000000
E 38 116 105.000000
E 38 453 99.000000
E 39 277 95.000000
E 39 302 101.000000
E 40 493 106.000000
E 40 591 97.000000
E 41 339 100.000000
E 41 466 98.000000
E 42 153 92.000000
E 42 266 106.000000
E 43 218 100.000000
E 43 414 110.000000
E 43 480 92.000000
E 43 590 102.000000
E 44 132 95.000000
E 44 379 97.000000
E 45 60 95.000000
E 45 90 97.000000
E 45 268 101.000000
E 46 141 105.000000
E 46 527 100.000000
E 47 206 101.000000
E 47 322 104.000000
E 48 96 104.000000
E 48 113 91.000000
E 48 185 99.000000
E 49 273 96.000000
E 49 324 99.000000
E 49 611 101.000000
E 50 53 94.000000
E 50 174 95.000000
E 50 368 107.000000
E 51 67 91.000000
E 51 418 99.000000
E 51 567 105.000000
E 52 315 94.000000
E 53 390 105.000000
E 54 427 96.000000
E 55 68 104.000000
E 55 81 105.000000
E 55 410 97.000000
E 55 586 99.000000
E 56 116 99.000000
E 56 120 96.000000
E 56 121 97.000000
E 56 221 99.000000
E 56 392 104.000000
E 56 466 98.000000
E 56 538 100.000000
E 57 242 103.000000
E 57 448 95.000000
E 58 286 100.000000
E 58 428 95.000000
E 58 638 94.000000
E 59 198 102.000000
E 59 322 97.000000
E 59 352 102.000000
E 59 499 101.000000
E 59 528 105.000000
E 59 562 97.000000
E 59 587 104.000000
E 59 615 107.000000
E 60 104 108.000000
E 60 114 91.000000
E 61 140 96.000000
E 61 303 102.000000
E 61 587 98.000000
E 62 135 98.000000
E 62 214 106.000000
E 62 618 104.000000
E 63 301 107.000000
E 63 309 100.000000
E 63 385 89.000000
E 63 562 107.000000
E 65 126 92.000000
E 66 403 102.000000
E 67 126 106.000000
E 67 141 95.000000
E 67 146 93.000000
E 67 451 102.000000
E 68 176 108.000000
E 68 391 98.000000
E 68 493 93.000000
E 68 546 100.000000
E 68 624 88.000000
E 70 274 86.000000
E 70 413 101.000000
E 70 568 99.000000
E 71 213 91.000000
E 71 622 97.000000
E 72 306 98.000000
E 72 579 104.000000
E 73 357 99.000000
E 73 422 100.000000
E 73 609 87.000000
E 74 132 98.000000
E 75 241 99.000000
E 75 242 99.000000
E 75 399 99.000000
E 75 510 92.000000
E 76 254 97.000000
E 76 261 99.000000
E 76 340 104.000000
E 76 554 93.000000
E 77 146 98.000000
E 78 79 101.000000
E 78 415 99.000000
E 79 347 109.000000
E 79 468 102.000000
E 79 475 100.000000
E 80 105 97.000000
E 80 162 99.000000
E 80 269 93.000000
E 80 307 96.000000
E 82 121 101.000000
E 82 130 102.000000
E 82 156 93.000000
E 82 347 101.000000
E 83 345 101.000000
E 83 419 96.000000
E 83 574 102.000000
E 84 241 97.000000
E 85 600 95.000000
E 86 133 102.000000
E 86 154 98.000000
E 86 564 99.000000
E 86 578 102.000000
E 86 618 92.000000
E 87 249 96.000000
E 87 306 95.000000
E 87 469 108.000000
E 87 472 94.000000
E 87 517 109.000000
E 88 219 103.000000
E 89 178 101.000000
E 89 188 106.000000
E 89 443 101.000000
E 89 556 102.000000
E 90 243 108.000000
E 90 447 99.000000
E 90 537 87.000000
E 90 575 104.000000
E 91 177 102.000000
E 91 188 112.000000
E 92 400 107.000000
E 92 406 106.000000
E 92 463 97.000000
E 92 494 91.000000
E 93 266 105.000000
E 93 477 98.000000
E 94 192 108.000000
E 94 270 100.000000
E 94 396 105.000000
E 95 429 99.000000
E 95 565 104.000000
E 96 256 95.000000
E 96 265 99.000000
E 96 538 102.000000
E 96 549 100.000000
E 97 209 87.000000
E 97 406 98.000000
E 98 510 100.000000
E 99 342 91.000000
E 99 408 97.000000
E 99 505 106.000000
E 99 531 95.000000
E 99 563 106.000000
E 100 256 103.000000
E 100 373 102.000000
E 101 392 98.000000
E 102 220 109.000000
E 102 255 97.000000
E 102 279 104.000000
E 102 319 98.000000
E 102 428 95.000000
E 102 437 95.000000
E 103 252 104.000000
E 103 602 99.000000
E 104 111 98.000000
E 105 163 95.000000
E 105 164 95.000000
E 106 449 103.000000
E 106 492 96.000000
E 106 511 103.000000
E 107 138 89.000000
E 108 256 88.000000
E 108 264 97.000000
E 108 516 92.000000
E 109 271 99.000000
E 109 364 93.000000
E 109 502 93.000000
E 109 530 96.000000
E 110 374 100.000000
E 111 244 96.000000
E 112 237 102.000000
E 113 611 102.000000
E 114 191 95.000000
E 114 330 103.000000
E 114 414 99.000000
E 114 461 93.000000
E 115 153 96.000000
E 115 360 98.000000
E 115 434 108.000000
E 116 162 94.000000
E 116 187 102.000000
E 116 192 100.000000
E 116 241 107.000000
E 116 296 103.000000
E 116 565 106.000000
E 116 625 100.000000
E 117 223 100.000000
E 117 257 104.000000
E 118 152 90.000000
E 118 358 98.000000
E 118 609 106.000000
E 119 235 93.000000
E 119 401 100.000000
E 120 267 98.000000
E 120 282 111.000000
E 120 397 98.000000
E 120 401 93.000000
E 120 531 102.000000
E 120 558 97.000000
E 121 208 92.000000
E 121 256 98.000000
E 121 348 102.000000
E 121 431 92.000000
E 121 433 95.000000
E 122 190 96.000000
E 123 508 110.000000
E 123 590 101.000000
E 124 544 103.000000
E 125 574 107.000000
E 126 165 98.000000
E 126 439 98.000000
E 126 604 105.000000
E 127 182 89.000000
E 127 193 100.000000
E 128 281 107.000000
E 128 380 101.000000
E 128 558 102.000000
E 129 357 102.000000
E 129 445 98.000000
E 130 606 100.000000
E 131 139 107.000000
E 131 499 87.000000
E 131 631 101.000000
E 132 234 94.000000
E 132 306 99.000000
E 134 305 103.000000
E 134 358 114.000000
E 134 443 102.000000
E 136 241 91.000000
E 137 560 95.000000
E 138 397 95.000000
E 138 571 100.000000
E 139 249 100.000000
E 140 166 99.000000
E 141 443 107.000000
E 141 566 103.000000
E 142 196 107.000000
E 142 418 99.000000
E 143 561 94.000000
E 144 451 94.000000
E 144 551 89.000000
E 145 198 85.000000
E 145 264 109.000000
E 145 427 104.000000
E 146 525 104.000000
E 147 625 94.000000
E 148 346 112.000000
E 148 419 97.000000
E 148 441 102.000000
E 148 447 100.000000
E 148 517 96.000000
E 148 547 101.000000
E 148 632 95.000000
E 149 209 104.000000
E 149 466 90.000000
E 149 514 94.000000
E 149 582 96.000000
E 149 634 99.000000
E 150 159 99.000000
E 150 449 93.000000
E 151 418 96.000000
E 151 431 102.000000
E 153 262 97.000000
E 153 343 103.000000
E 153 369 95.000000
E 154 215 103.000000
E 155 187 97.000000
E 155 344 103.000000
E 156 491 112.000000
E 156 591 106.000000
E 157 162 100.000000
E 157 437 101.000000
E 157 508 112.000000
E 157 532 98.000000
E 157 566 96.000000
E 157 609 95.000000
E 158 216 92.000000
E 158 336 105.000000
E 158 348 106.000000
E 159 164 102.000000
E 159 251 99.000000
E 160 511 101.000000
E 160 611 97.000000
E 161 409 93.000000
E 161 412 109.000000
E 161 499 102.000000
E 162 166 101.000000
E 162 233 100.000000
E 162 329 91.000000
E 162 512 101.000000
E 162 593 100.000000
E 162 635 99.000000
E 163 214 96.000000
E 163 304 117.000000
E 163 374 99.000000
E 163 401 101.000000
E 164 592 100.000000
E 165 283 98.000000
E 167 234 94.000000
E 167 556 99.000000
E 168 233 107.000000
E 169 172 102.000000
E 169 357 93.000000
E 169 421 98.000000
E 170 531 93.000000
E 170 614 92.000000
E 171 420 97.000000
E 171 451 97.000000
E 172 502 107.000000
E 172 636 91.000000
E 173 178 108.000000
E 175 276 102.000000
E 175 321 103.000000
E 175 340 102.000000
E 175 432 111.000000
E 176 329 94.000000
E 176 443 106.000000
E 179 227 105.000000
E 179 523 103.000000
E 180 400 97.000000
E 180 569 101.000000
E 180 614 101.000000
E 182 199 94.000000
E 183 397 101.000000
E 183 442 100.000000
E 183 462 104.000000
E 184 245 95.000000
E 184 381 99.000000
E 185 235 100.000000
E 185 322 104.000000
E 186 319 102.000000
E 186 408 91.000000
E 186 521 101.000000
E 187 300 94.000000
E 187 635 101.000000
E 188 430 85.000000
E 188 626 96.000000
E 189 283 105.000000
E 189 352 97.000000
E 190 550 114.000000
E 190 626 97.000000
E 191 518 95.000000
E 191 567 100.000000
E 192 226 97.000000
E 192 298 105.000000
E 192 369 102.000000
E 192 404 100.000000
E 192 479 93.000000
E 193 231 99.000000
E 193 235 101.000000
E 193 464 106.000000
E 194 228 93.000000
E 194 314 97.000000
E 194 417 103.000000
E 195 256 91.000000
E 196 509 98.000000
E 197 437 95.000000
E 197 493 101.000000
E 197 518 97.000000
E 197 524 107.000000
E 198 465 101.000000
E 198 623 100.000000
E 199 283 93.000000
E 199 480 98.000000
E 199 527 100.000000
E 200 301 102.000000
E 200 523 103.000000
E 201 358 100.000000
E 201 615 103.000000
E 202 375 92.000000
E 203 513 96.000000
E 204 222 104.000000
E 204 233 108.000000
E 204 364 96.000000
E 204 451 104.000000
E 204 516 99.000000
E 205 396 105.000000
E 206 610 97.000000
E 207 256 100.000000
E 208 438 90.000000
E 208 512 111.000000
E 209 463 102.000000
E 209 533 100.000000
E 209 559 101.000000
E 210 275 100.000000
E 210 469 99.000000
E 211 323 88.000000
E 211 382 96.000000
E 211 537 98.000000
E 211 618 102.000000
E 212 447 96.000000
E 213 327 105.000000
E 213 449 101.000000
E 213 459 102.000000
E 213 507 97.000000
E 213 639 93.000000
E 215 300 99.000000
E 215 302 92.000000
E 216 268 97.000000
E 217 485 92.000000
E 217 539 103.000000
E 219 314 97.000000
E 219 430 102.000000
E 220 615 104.000000
E 222 374 99.000000
E 223 252 102.000000
E 223 491 96.000000
E 223 604 90.000000
E 224 431 101.000000
E 225 262 93.000000
E 226 338 102.000000
E 226 342 102.000000
E 226 386 102.000000
E 226 610 94.000000
E 227 274 96.000000
E 228 272 103.000000
E 228 280 99.000000
E 228 320 98.000000
E 228 347 94.000000
E 229 407 98.000000
E 229 440 105.000000
E 229 534 93.000000
E 229 581 103.000000
E 230 640 95.000000
E 231 286 94.000000
E 231 416 94.000000
E 231 637 105.000000
E 232 499 103.000000
E 232 575 97.000000
E 236 313 99.000000
E 237 493 101.000000
E 238 352 96.000000
E 238 607 103.000000
E 239 348 96.000000
E 239 447 101.000000
E 240 404 97.000000
E 240 531 103.000000
E 241 352 98.000000
E 241 356 108.000000
E 241 405 92.000000
E 242 506 99.000000
E 242 571 93.000000
E 242 580 109.000000
E 243 250 98.000000
E 243 321 100.000000
E 244 247 106.000000
E 244 291 92.000000
E 244 437 107.000000
E 244 470 98.000000
E 244 492 100.000000
E 244 503 95.000000
E 244 575 97.000000
E 246 311 103.000000
E 246 344 103.000000
E 249 266 102.000000
E 250 306 103.000000
E 251 356 104.000000
E 251 471 102.000000
E 253 286 109.000000
E 254 275 103.000000
E 254 387 102.000000
E 254 404 98.000000
E 255 316 99.000000
E 255 613 104.000000
E 256 311 104.000000
E 256 555 110.000000
E 257 432 95.000000
E 258 313 99.000000
E 258 379 95.000000
E 258 498 94.000000
E 259 435 100.000000
E 259 496 105.000000
E 259 530 101.000000
E 260 393 105.000000
E 260 493 94.000000
E 261 522 93.000000
E 261 629 100.000000
E 262 375 97.000000
E 262 560 95.000000
E 263 279 99.000000
E 263 334 96.000000
E 263 418 107.000000
E 263 446 100.000000
E 263 477 97.000000
E 264 548 95.000000
E 265 365 100.000000
E 265 458 105.000000
E 266 302 101.000000
E 266 490 97.000000
E 266 534 100.000000
E 269 284 100.000000
E 269 303 100.000000
E 269 319 104.000000
E 269 427 103.000000
E 269 529 96.000000
E 269 617 111.000000
E 270 560 100.000000
E 271 330 99.000000
E 271 450 107.000000
E 271 594 90.000000
E 271 618 107.000000
E 272 289 101.000000
E 272 401 105.000000
E 272 443 92.000000
E 272 595 96.000000
E 273 307 102.000000
E 275 424 104.000000
E 276 433 106.000000
E 277 338 93.000000
E 277 517 106.000000
E 278 446 104.000000
E 279 317 93.000000
E 280 378 112.000000
E 282 300 102.000000
E 282 634 97.000000
E 284 352 99.000000
E 284 400 98.000000
E 285 305 99.000000
E 286 587 97.000000
E 287 348 87.000000
E 287 409 92.000000
E 287 421 90.000000
E 287 489 97.000000
E 288 406 97.000000
E 289 420 96.000000
E 289 558 102.000000
E 290 300 109.000000
E 290 351 97.000000
E 290 403 96.000000
E 290 436 100.000000
E 290 533 97.000000
E 290 543 101.000000
E 291 308 105.000000
E 292 309 101.000000
E 292 321 98.000000
E 292 484 90.000000
E 292 515 96.000000
E 293 528 107.000000
E 294 351 105.000000
E 295 555 103.000000
E 295 616 100.000000
E 297 470 99.000000
E 297 477 98.000000
E 298 488 94.000000
E 298 542 99.000000
E 299 539 96.000000
E 299 568 96.000000
E 301 562 100.000000
E 302 566 98.000000
E 302 631 100.000000
E 304 400 103.000000
E 304 406 103.000000
E 305 409 108.000000
E 306 325 97.000000
E 306 520 106.000000
E 306 534 104.000000
E 307 602 95.000000
E 307 613 95.000000
E 308 420 106.000000
E 309 521 100.000000
E 310 367 97.000000
E 310 629 104.000000
E 311 349 114.000000
E 312 313 109.000000
E 312 379 99.000000
E 313 577 99.000000
E 314 405 104.000000
E 314 424 96.000000
E 314 620 91.000000
E 315 378 113.000000
E 315 447 106.000000
E 315 494 101.000000
E 315 623 96.000000
E 316 449 105.000000
E 316 519 89.000000
E 317 480 98.000000
E 318 402 100.000000
E 318 479 93.000000
E 318 580 101.000000
E 321 450 94.000000
E 321 600 103.000000
E 321 611 103.000000
E 322 426 101.000000
E 322 511 97.000000
E 323 330 94.000000
E 323 609 98.000000
E 324 344 94.000000
E 325 364 96.000000
E 326 375 106.000000
E 327 333 103.000000
E 327 366 98.000000
E 327 476 100.000000
E 327 603 90.000000
E 327 612 95.000000
E 329 457 103.000000
E 329 589 110.000000
E 331 343 98.000000
E 331 495 98.000000
E 331 616 99.000000
E 331 640 107.000000
E 332 444 98.000000
E 334 528 105.000000
E 335 350 113.000000
E 335 625 95.000000
E 337 365 100.000000
E 340 469 100.000000
E 340 493 96.000000
E 341 343 101.000000
E 341 345 99.000000
E 343 400 96.000000
E 344 419 103.000000
E 344 533 106.000000
E 344 555 99.000000
E 345 485 100.000000
E 345 511 99.000000
E 345 526 100.000000
E 346 487 96.000000
E 347 493 99.000000
E 348 446 95.000000
E 349 495 96.000000
E 350 353 102.000000
E 350 484 98.000000
E 351 388 102.000000
E 351 528 109.000000
E 351 543 97.000000
E 352 437 94.000000
E 352 519 97.000000
E 352 538 99.000000
E 352 562 107.000000
E 353 601 109.000000
E 353 636 100.000000
E 354 486 97.000000
E 355 384 94.000000
E 357 413 97.000000
E 357 627 106.000000
E 361 613 92.000000
E 362 452 112.000000
E 362 639 112.000000
E 363 459 98.000000
E 365 376 99.000000
E 365 416 95.000000
E 365 432 103.000000
E 365 447 99.000000
E 365 618 90.000000
E 366 384 101.000000
E 366 446 90.000000
E 368 407 104.000000
E 368 616 92.000000
E 368 626 97.000000
E 369 570 94.000000
E 370 513 102.000000
E 371 459 99.000000
E 372 530 93.000000
E 373 464 98.000000
E 374 417 104.000000
E 374 476 96.000000
E 375 515 94.000000
E 377 442 93.000000
E 377 467 103.000000
E 377 608 104.000000
E 379 588 104.000000
E 379 597 95.000000
E 380 553 98.000000
E 380 566 93.000000
E 381 592 99.000000
E 382 520 99.000000
E 382 559 94.000000
E 383 587 94.000000
E 384 470 100.000000
E 385 465 104.000000
E 385 488 97.000000
E 387 555 96.000000
E 387 619 101.000000
E 388 464 102.000000
E 389 391 87.000000
E 389 451 102.000000
E 391 575 108.000000
E 392 513 105.000000
E 392 613 101.000000
E 392 616 97.000000
E 393 472 98.000000
E 393 489 98.000000
E 394 488 100.000000
E 394 537 106.000000
E 395 556 91.000000
E 396 415 102.000000
E 396 511 104.000000
E 397 423 106.000000
E 397 564 109.000000
E 398 442 98.000000
E 398 584 99.000000
E 399 434 94.000000
E 400 585 104.000000
E 401 507 96.000000
E 404 482 102.000000
E 406 508 102.000000
E 406 537 103.000000
E 411 524 89.000000
E 415 567 95.000000
E 416 562 96.000000
E 417 463 106.000000
E 422 459 110.000000
E 422 560 101.000000
E 423 630 102.000000
E 425 517 98.000000
E 425 602 109.000000
E 427 549 103.000000
E 427 568 101.000000
E 429 432 101.000000
E 429 437 94.000000
E 430 493 99.000000
E 432 519 96.000000
E 432 557 94.000000
E 432 602 96.000000
E 433 563 106.000000
E 433 611 113.000000
E 434 542 95.000000
E 435 509 104.000000
E 435 571 95.000000
E 437 478 103.000000
E 437 521 105.000000
E 437 616 105.000000
E 438 549 99.000000
E 442 495 99.000000
E 442 603 102.000000
E 443 459 100.000000
E 443 605 104.000000
E 444 579 101.000000
E 445 486 94.000000
E 445 510 95.000000
E 446 454 103.000000
E 446 554 90.000000
E 447 460 97.000000
E 447 619 100.000000
E 449 512 98.000000
E 449 539 105.000000
E 450 639 103.000000
E 451 477 101.000000
E 452 472 101.000000
E 452 590 107.000000
E 454 497 100.000000
E 455 478 110.000000
E 456 531 96.000000
E 456 593 100.000000
E 457 508 101.000000
E 457 534 108.000000
E 459 506 98.000000
E 459 568 92.000000
E 460 628 95.000000
E 461 518 99.000000
E 461 562 104.000000
E 463 469 96.000000
E 466 592 97.000000
E 466 632 100.000000
E 468 505 100.000000
E 471 608 96.000000
E 472 565 99.000000
E 473 552 93.000000
E 474 623 105.000000
E 475 527 91.000000
E 477 523 97.000000
E 477 579 103.000000
E 477 633 102.000000
E 478 582 100.000000
E 479 523 94.000000
E 481 509 96.000000
E 481 621 95.000000
E 483 558 108.000000
E 486 505 96.000000
E 487 552 100.000000
E 487 639 96.000000
E 489 596 107.000000
E 490 513 104.000000
E 490 565 96.000000
E 493 538 92.000000
E 493 561 100.000000
E 494 525 92.000000
E 495 531 95.000000
E 495 551 93.000000
E 495 601 105.000000
E 500 534 105.000000
E 504 604 102.000000
E 506 521 104.000000
E 507 520 96.000000
E 508 626 95.000000
E 509 583 98.000000
E 509 600 98.000000
E 511 574 100.000000
E 512 536 95.000000
E 513 540 99.000000
E 514 611 98.000000
E 518 592 102.000000
E 520 606 97.000000
E 521 556 102.000000
E 523 632 110.000000
E 526 537 97.000000
E 528 599 101.000000
E 528 627 108.000000
E 531 601 105.000000
E 534 573 100.000000
E 535 578 104.000000
E 541 553 104.000000
E 541 589 100.000000
E 541 610 95.000000
E 544 588 96.000000
E 545 555 94.000000
E 550 556 102.000000
E 550 585 104.000000
E 551 608 97.000000
E 553 623 99.000000
E 561 609 96.000000
E 569 575 97.000000
E 570 602 93.000000
E 571 620 102.000000
E 577 588 97.000000
E 583 595 100.000000
E 591 598 100.000000
E 591 618 92.000000
E 596 625 98.000000
E 601 629 98.000000
END

SECTION Terminals
Terminals 9
TP 1 512.000000
TP 2 552.000000
TP 3 732.000000
TP 4 44.000000
TP 5 284.000000
TP 6 644.000000
TP 7 16.000000
TP 8 564.000000
TP 9 248.000000
END

EOF
